10  5
  0  45  1  31  2  54  3  54  4  64
  0  44  1  7  2  52  3  66  4  57
  0  26  1  19  2  65  3  34  4  27
  0  74  1  83  2  94  3  76  4  60
  0  19  1  41  2  31  3  50  4  33
  0  20  1  28  2  42  3  63  4  29
  0  23  1  30  2  10  3  27  4  26
  0  46  1  19  2  11  3  5  4  36
  0  76  1  76  2  34  3  6  4  91
  0  57  1  31  2  33  3  8  4  19
